Route #1: 1 29 16 45 23 3 38 37 53 14 15 1
Route #2: 1 8 21 52 11 30 62 44 7 33 1
Route #3: 1 54 13 49 57 39 20 19 31 61 32 1
Route #4: 1 36 12 50 5 22 42 24 28 40 55 35 1
Route #5: 1 51 34 59 18 27 56 60 1
Route #6: 1 6 26 10 2 47 46 4 1
Route #7: 1 17 25 43 48 1
Route #8: 1 41 58 9 1
cost 1639
